Route #1: 9 7 10 39 34 16 36 8 31 30 42 45 35 19 26 43 22 32 4 41 21
Route #2: 23 13 24 33 28 38 20 5 29 40
Route #3: 1 15 18 25
Route #4: 12 11 3 37
Route #5: 17 14 2 44 27 6
Route #6: 
cost 1201.722225052943
